solution status: time limit reached
objective value:                                  -65
x2382                                               1 	(obj:0)
x0                                                  1 	(obj:-1)
x30                                                 1 	(obj:-1)
x33                                                 1 	(obj:-1)
x79                                                 1 	(obj:-1)
x95                                                 1 	(obj:-1)
x114                                                1 	(obj:-1)
x147                                                1 	(obj:-1)
x182                                                1 	(obj:-1)
x192                                                1 	(obj:-1)
x214                                                1 	(obj:-1)
x232                                                1 	(obj:-1)
x262                                                1 	(obj:-1)
x305                                                1 	(obj:-1)
x344                                                1 	(obj:-1)
x357                                                1 	(obj:-1)
x373                                                1 	(obj:-1)
x409                                                1 	(obj:-1)
x420                                                1 	(obj:-1)
x451                                                1 	(obj:-1)
x511                                                1 	(obj:-1)
x514                                                1 	(obj:-1)
x531                                                1 	(obj:-1)
x580                                                1 	(obj:-1)
x608                                                1 	(obj:-1)
x625                                                1 	(obj:-1)
x642                                                1 	(obj:-1)
x670                                                1 	(obj:-1)
x705                                                1 	(obj:-1)
x734                                                1 	(obj:-1)
x742                                                1 	(obj:-1)
x782                                                1 	(obj:-1)
x789                                                1 	(obj:-1)
x815                                                1 	(obj:-1)
x835                                                1 	(obj:-1)
x863                                                1 	(obj:-1)
x868                                                1 	(obj:-1)
x885                                                1 	(obj:-1)
x911                                                1 	(obj:-1)
x917                                                1 	(obj:-1)
x932                                                1 	(obj:-1)
x950                                                1 	(obj:-1)
x990                                                1 	(obj:-1)
x1000                                               1 	(obj:-1)
x1011                                               1 	(obj:-1)
x1026                                               1 	(obj:-1)
x1048                                               1 	(obj:-1)
x1060                                               1 	(obj:-1)
x1077                                               1 	(obj:-1)
x1102                                               1 	(obj:-1)
x1111                                               1 	(obj:-1)
x1140                                               1 	(obj:-1)
x1168                                               1 	(obj:-1)
x1199                                               1 	(obj:-1)
x1202                                               1 	(obj:-1)
x1235                                               1 	(obj:-1)
x1249                                               1 	(obj:-1)
x1278                                               1 	(obj:-1)
x1288                                               1 	(obj:-1)
x1314                                               1 	(obj:-1)
x1331                                               1 	(obj:-1)
x1344                                               1 	(obj:-1)
x1364                                               1 	(obj:-1)
x1377                                               1 	(obj:-1)
x1394                                               1 	(obj:-1)
x1413                                               1 	(obj:-1)
x1432                                               1 	(obj:0)
x1448                                               1 	(obj:0)
x1470                                               1 	(obj:0)
x1487                                               1 	(obj:0)
x1502                                               1 	(obj:0)
x1506                                               1 	(obj:0)
x1534                                               1 	(obj:0)
x1537                                               1 	(obj:0)
x1556                                               1 	(obj:0)
x1583                                               1 	(obj:0)
x1584                                               1 	(obj:0)
x1605                                               1 	(obj:0)
x1621                                               1 	(obj:0)
x1634                                               1 	(obj:0)
x1654                                               1 	(obj:0)
x1678                                               1 	(obj:0)
x1683                                               1 	(obj:0)
x1698                                               1 	(obj:0)
x1715                                               1 	(obj:0)
x1728                                               1 	(obj:0)
x1746                                               1 	(obj:0)
x1775                                               1 	(obj:0)
x1790                                               1 	(obj:0)
x1794                                               1 	(obj:0)
x1809                                               1 	(obj:0)
x1828                                               1 	(obj:0)
x1854                                               1 	(obj:0)
x1870                                               1 	(obj:0)
x1878                                               1 	(obj:0)
x1892                                               1 	(obj:0)
x1912                                               1 	(obj:0)
x1928                                               1 	(obj:0)
x1940                                               1 	(obj:0)
x1967                                               1 	(obj:0)
x1971                                               1 	(obj:0)
x1986                                               1 	(obj:0)
x2015                                               1 	(obj:0)
x2021                                               1 	(obj:0)
x2035                                               1 	(obj:0)
x2057                                               1 	(obj:0)
x2070                                               1 	(obj:0)
x2086                                               1 	(obj:0)
x2096                                               1 	(obj:0)
x2118                                               1 	(obj:0)
x2143                                               1 	(obj:0)
x2149                                               1 	(obj:0)
x2162                                               1 	(obj:0)
x2181                                               1 	(obj:0)
x2198                                               1 	(obj:0)
x2212                                               1 	(obj:0)
x2226                                               1 	(obj:0)
x2244                                               1 	(obj:0)
x2271                                               1 	(obj:0)
x2273                                               1 	(obj:0)
x2303                                               1 	(obj:0)
x2307                                               1 	(obj:0)
x2327                                               1 	(obj:0)
x2351                                               1 	(obj:0)
x2353                                               1 	(obj:0)
